17	4
10	13	15	11	
0	0	0	0	0	3	2	3	4	
7	0	0	4	0	3	8	10	15	
10	0	0	5	0	3	5	6	10	
7	0	3	0	0	3	6	7	12	
1	0	0	5	0	3	12	13	14	
150	0	0	9	0	3	9	17	17	
200	0	6	0	0	3	11	14	17	
175	0	0	5	0	3	12	13	17	
250	0	0	2	0	3	15	16	17	
200	0	0	0	6	3	16	17	17	
25	0	2	0	0	3	13	15	17	
100	5	0	0	0	3	16	17	17	
3	0	0	0	7	3	17	17	17	
4	0	0	7	0	3	17	17	17	
6	0	8	0	0	2	17	17	
4	1	0	0	0	1	17	
0	0	0	0	0	0	
